&BANDS
  prefix = 'kagome'
  outdir = './'
  filband = 'kagome.bands.dat'
/

